[ma. 03. april 17:20:39 +0200 2023]  ./input/alternate_g_np/50-3-2.gcc
Set parameter Username
Academic license - for non-commercial use only - expires 2024-03-28
Set parameter TimeLimit to value 1800
Set parameter PreCrush to value 1
Set parameter LazyConstraints to value 1
Gurobi Optimizer version 10.0.1 build v10.0.1rc0 (linux64)

CPU model: AMD Ryzen 9 5950X 16-Core Processor, instruction set [SSE2|AVX|AVX2]
Thread count: 16 physical cores, 32 logical processors, using up to 32 threads

Optimize a model with 59 rows, 500 columns and 1400 nonzeros
Model fingerprint: 0x11b549df
Variable types: 0 continuous, 500 integer (500 binary)
Coefficient statistics:
  Matrix range     [1e+00, 1e+00]
  Objective range  [3e+00, 1e+02]
  Bounds range     [1e+00, 1e+00]
  RHS range        [1e+00, 1e+00]
Presolve time: 0.00s
Presolved: 59 rows, 500 columns, 1400 nonzeros
Variable types: 0 continuous, 500 integer (500 binary)

Root relaxation: objective 2.648000e+03, 9 iterations, 0.00 seconds (0.00 work units)

    Nodes    |    Current Node    |     Objective Bounds      |     Work
 Expl Unexpl |  Obj  Depth IntInf | Incumbent    BestBd   Gap | It/Node Time

     0     0 2648.00000    0    9          - 2648.00000      -     -    0s
     0     0 2648.00000    0    7          - 2648.00000      -     -    0s
     0     0 2648.00000    0    -          - 2648.00000      -     -    0s
     0     0 2648.00000    0    -          - 2648.00000      -     -    0s
     0     0 2648.00000    0   13          - 2648.00000      -     -    0s
     0     0 2648.00000    0    -          - 2648.00000      -     -    0s
     0     0 2648.00000    0   13          - 2648.00000      -     -    0s
     0     0 2648.00000    0    9          - 2648.00000      -     -    0s
     0     2 2648.00000    0    6          - 2648.00000      -     -    0s
H 4374  2754                    2480.0000000 2648.00000  6.77%   8.3    0s
H 4374  2617                    2521.0000000 2648.00000  5.04%   8.3    0s
H 4378  2489                    2537.0000000 2648.00000  4.38%   8.3    0s
H 4384  2368                    2543.0000000 2648.00000  4.13%   8.3    0s
 18972  9761 2648.00000   63   53 2543.00000 2648.00000  4.13%  24.1    5s
H22455  2127                    2648.0000000 2648.00000  0.00%  31.3    6s

Cutting planes:
  User: 26
  Lazy constraints: 3632

Explored 22786 nodes (729522 simplex iterations) in 6.63 seconds (3.41 work units)
Thread count was 32 (of 32 available processors)

Solution count 5: 2648 2543 2537 ... 2480

Optimal solution found (tolerance 1.00e-04)
Best objective 2.648000000000e+03, best bound 2.648000000000e+03, gap 0.0000%

User-callback calls 46679, time in user-callback 2.45 sec
Minimal separator inequalities added: 209571
Indegree inequalities added: 0
Passed solution check
[ma. 03. april 17:20:45 +0200 2023]  done

